0  500 500
1  826 465
2  359 783
3  563 182
4  547 438
5  569 676
6  989 416
7  648 750
8  694 978
9  493 969
10 175 89
11 104 130
12 257 848
13 791 249
14 952 204
15 34  654
16 89  503
17 548 964
18 492 34
19 749 592
20 536 875
21 373 708
22 385 260
23 560 751
24 304 516
25 741 368
26 59  131
27 154 681
28 425 456
29 885 783
30 30  415
31 61  25